16
1 0 13
2 1 35
3 0 42
3 1 22
4 1 5
4 3 18
5 1 1
5 2 32
5 3 55
6 1 35
6 3 42
6 4 38
6 5 48
7 0 34
7 2 52
7 3 26
7 4 53
7 6 49
8 1 19
8 4 57
8 6 57
9 0 55
9 1 50
9 3 54
9 5 10
9 6 34
9 8 45
10 2 16
10 3 12
10 4 4
10 9 27
11 1 52
11 2 54
11 3 24
11 8 48
12 3 51
12 5 2
12 6 3
12 9 39
12 10 1
12 11 15
13 2 8
13 3 36
13 4 42
13 5 41
13 9 23
13 10 34
13 12 41
14 3 43
14 9 15
14 10 32
14 12 53
14 13 1
15 0 45
15 2 42
15 4 56
15 5 55
15 7 50
15 8 20
15 9 33
15 10 25
15 11 24
15 12 52
15 14 57
